NAME          
ROWS
 N  OBJ
 L  c1
COLUMNS
    MARKER    'MARKER'                 'INTORG'
    x[1]      c1        111
    x[1]      OBJ       -964
    x[2]      c1        487
    x[2]      OBJ       -672
    x[3]      c1        660
    x[3]      OBJ       -882
    x[4]      c1        829
    x[4]      OBJ       -401
    x[5]      c1        351
    x[5]      OBJ       -273
    x[6]      c1        505
    x[6]      OBJ       -429
    x[7]      c1        401
    x[7]      OBJ       -360
    x[8]      c1        717
    x[8]      OBJ       -335
    x[9]      c1        644
    x[9]      OBJ       -561
    x[10]     c1        900
    x[10]     OBJ       -569
    x[11]     c1        557
    x[11]     OBJ       -421
    x[12]     c1        568
    x[12]     OBJ       -541
    x[13]     c1        151
    x[13]     OBJ       -99
    x[14]     c1        282
    x[14]     OBJ       -699
    x[15]     c1        827
    x[15]     OBJ       -498
    x[16]     c1        922
    x[16]     OBJ       -78
    x[17]     c1        852
    x[17]     OBJ       -974
    x[18]     c1        848
    x[18]     OBJ       -260
    x[19]     c1        256
    x[19]     OBJ       -810
    x[20]     c1        469
    x[20]     OBJ       -504
    x[21]     c1        727
    x[21]     OBJ       -371
    x[22]     c1        414
    x[22]     OBJ       -945
    x[23]     c1        501
    x[23]     OBJ       -547
    x[24]     c1        793
    x[24]     OBJ       -903
    x[25]     c1        809
    x[25]     OBJ       -676
    x[26]     c1        341
    x[26]     OBJ       -212
    x[27]     c1        782
    x[27]     OBJ       -69
    x[28]     c1        174
    x[28]     OBJ       -905
    x[29]     c1        158
    x[29]     OBJ       -118
    x[30]     c1        985
    x[30]     OBJ       -299
    x[31]     c1        145
    x[31]     OBJ       -326
    x[32]     c1        741
    x[32]     OBJ       -154
    x[33]     c1        845
    x[33]     OBJ       -885
    x[34]     c1        573
    x[34]     OBJ       -390
    x[35]     c1        629
    x[35]     OBJ       -270
    x[36]     c1        235
    x[36]     OBJ       -640
    x[37]     c1        728
    x[37]     OBJ       -204
    x[38]     c1        406
    x[38]     OBJ       -760
    x[39]     c1        766
    x[39]     OBJ       -240
    x[40]     c1        242
    x[40]     OBJ       -296
    x[41]     c1        49
    x[41]     OBJ       -569
    x[42]     c1        362
    x[42]     OBJ       -306
    x[43]     c1        510
    x[43]     OBJ       -849
    x[44]     c1        267
    x[44]     OBJ       -194
    x[45]     c1        52
    x[45]     OBJ       -542
    x[46]     c1        990
    x[46]     OBJ       -436
    x[47]     c1        415
    x[47]     OBJ       -339
    x[48]     c1        612
    x[48]     OBJ       -991
    x[49]     c1        120
    x[49]     OBJ       -401
    x[50]     c1        884
    x[50]     OBJ       -899
RHS
    rhs       c1        13296
RANGES
BOUNDS
 BV bounds    x[1]
 BV bounds    x[2]
 BV bounds    x[3]
 BV bounds    x[4]
 BV bounds    x[5]
 BV bounds    x[6]
 BV bounds    x[7]
 BV bounds    x[8]
 BV bounds    x[9]
 BV bounds    x[10]
 BV bounds    x[11]
 BV bounds    x[12]
 BV bounds    x[13]
 BV bounds    x[14]
 BV bounds    x[15]
 BV bounds    x[16]
 BV bounds    x[17]
 BV bounds    x[18]
 BV bounds    x[19]
 BV bounds    x[20]
 BV bounds    x[21]
 BV bounds    x[22]
 BV bounds    x[23]
 BV bounds    x[24]
 BV bounds    x[25]
 BV bounds    x[26]
 BV bounds    x[27]
 BV bounds    x[28]
 BV bounds    x[29]
 BV bounds    x[30]
 BV bounds    x[31]
 BV bounds    x[32]
 BV bounds    x[33]
 BV bounds    x[34]
 BV bounds    x[35]
 BV bounds    x[36]
 BV bounds    x[37]
 BV bounds    x[38]
 BV bounds    x[39]
 BV bounds    x[40]
 BV bounds    x[41]
 BV bounds    x[42]
 BV bounds    x[43]
 BV bounds    x[44]
 BV bounds    x[45]
 BV bounds    x[46]
 BV bounds    x[47]
 BV bounds    x[48]
 BV bounds    x[49]
 BV bounds    x[50]
ENDATA
